Optimal - objective value 90.00000000
      0 x0_1                   1                      20
      1 x0_2                   0                      20
      2 x0_3                   0                      30
      3 x0_4                   0                      30
      4 x1_0                   0                       0
      5 x1_2                   1                       0
      6 x1_3                   0                      10
      7 x1_4                   0                      10
      8 x2_0                   0                       0
      9 x2_1                   0                       0
     10 x2_3                   1                       0
     11 x2_4                   0                       0
     12 x3_0                   0                      10
     13 x3_1                   0                      10
     14 x3_2                   0                       0
     15 x3_4                   1                       0
     16 x4_0                   1                      10
     17 x4_1                   0                      10
     18 x4_2                   0                       0
     19 x4_3                   0                       0
     20 u1                     3                       0
     21 u2                     7                       0
     22 u3                    12                       0
     23 u4                    20                       0
